branch-and-cut/resultados/I080/i080-103.sol
2603
16
1 73
3 75
75 6
4 64
7 15
3 23
1 40
2 74
23 38
40 44
75 5
8 44
74 38
23 15
64 38
73 15
